Route #1: 59 98 92 95 27 69 52 82 7 19 88 18 6 94 87 57 41 22 56 26 50 68 54 55 4 74 13
Route #2: 47 36 45 83 5 42 15 14 38 44 16 61 86 85 99 84 8 49 46 96 97 37 43 100 91 93 17 60 48 89
Route #3: 28 33 65 71 29 81 9 51 90 10 32 20 66 35 70 1
Route #4: 31 63 64 11 62 30 76 12 21 73 40 53
Route #5: 2 72 39 67 23 75 79 78 34 3 77 80 24 25 58
Cost 93223.06